c read Graph
c width = 43
c time = 382 ms
c width = 8
c time = 504 ms
c width = 7
c time = 1271 ms
c width = 7
c time = 4242 ms
s td 49 8 56
b 1 1 2 9
b 2 2 3 9 10
b 3 6 7 15 16
b 4 3 9 10 17
b 5 6 15 16 24
b 6 33 41 42 50
b 7 40 47 48 55
b 8 33 42 50 51
b 9 40 47 54 55
b 10 3 4 11 18 25
b 11 4 5 11 12 18 25
b 12 5 11 12 18 20 25 27
b 13 5 12 18 20 25 27 34
b 14 5 12 20 25 27 34 43 52
b 15 5 12 20 27 34 36 43 52
b 16 5 12 20 27 28 36 43 52
b 17 5 12 20 21 28 36 43 52
b 18 5 12 21 28 29 36 43 52
b 19 5 12 21 29 36 43 45 52
b 20 5 12 21 29 36 37 45 52
b 21 5 12 21 29 30 37 45 52
b 22 5 12 21 30 37 38 45 52
b 23 5 12 21 30 38 45 52 54
b 24 5 12 21 30 38 45 46 54
b 25 5 12 21 30 38 39 46 54
b 26 5 12 21 30 32 39 46 54
b 27 3 11 17 18 25
b 28 3 10 11 17 18
b 29 45 52 53 54
b 30 25 34 43 51 52
b 31 25 33 34 43 51
b 32 33 34 42 43 51
b 33 27 34 35 36 43
b 34 18 25 26 27 34
b 35 11 18 19 20 27
b 36 36 43 44 45 52
b 37 32 39 40 46 54
b 38 39 40 46 47 54
b 39 5 12 21 23 30 32 39
b 40 23 30 31 32 39
b 41 5 12 14 21 23 30 32
b 42 5 14 23 24 32
b 43 5 6 14 23 24
b 44 6 14 15 23 24
b 45 14 21 22 23 30
b 46 5 12 13 14 21
b 47 48 55 56
b 48 41 49 50
b 49 7 8 16
1 2
2 4
3 49
3 5
4 28
5 44
6 48
6 8
7 47
7 9
8 32
9 38
10 27
10 11
11 12
12 35
12 13
13 34
13 14
14 30
14 15
15 33
15 16
16 17
17 18
18 19
19 36
19 20
20 21
21 22
22 23
23 29
23 24
24 25
25 26
26 39
26 37
27 28
30 31
31 32
37 38
39 40
39 41
41 46
41 45
41 42
42 43
43 44
